p tw 35 38
1 2
2 13
3 4
4 5
5 6
5 8
6 7
7 19
8 9
9 10
10 11
10 16
11 12
12 14
13 24
14 15
15 8
16 17
17 18
18 19
19 20
20 21
21 22
22 23
22 28
23 25
24 30
25 26
26 27
27 28
28 29
30 31
31 32
32 33
32 3
33 34
34 35
35 28
